NAME : amz1096.92001_92001.tour
COMMENT : Cost = 92001_92001
COMMENT : Found by LKH-AMZ [Keld Helsgaun] Sun May 11 14:45:52 2025
COMMENT : TW viol.: 0 #: 0
TYPE : TOUR
DIMENSION : 132
TOUR_SECTION
81
16
15
83
92
110
90
19
44
86
82
128
119
71
97
32
53
56
101
66
115
94
12
70
76
21
1
6
132
123
91
41
13
10
60
127
20
126
11
77
79
38
55
74
106
30
125
75
57
108
42
96
36
69
102
124
51
4
118
99
52
58
85
14
131
17
95
78
104
2
120
100
98
89
47
34
111
33
5
26
130
65
63
107
54
3
105
22
93
43
103
28
23
112
68
35
117
27
113
59
62
24
80
50
67
29
31
72
73
64
8
9
129
40
121
45
7
37
49
18
109
84
116
114
88
25
87
48
61
39
46
122
-1
EOF
